27	3

10	10	10	

0	0	0	0	3	2	3	4	
2	3	5	2	2	5	8	
1	5	4	3	1	6	
4	5	2	2	2	5	7	
2	4	1	4	2	10	12	
3	5	5	4	1	9	
1	3	5	2	1	9	
6	2	4	4	1	11	
2	3	2	2	1	14	
1	3	2	4	3	13	15	16	
3	3	3	2	1	14	
4	4	1	4	1	13	
2	1	4	4	1	17	
1	2	2	2	2	18	20	
1	5	5	4	1	19	
1	1	5	4	1	17	
3	4	5	4	2	21	24	
4	3	2	3	1	21	
2	5	3	3	1	21	
9	2	4	6	2	22	23	
3	1	6	2	1	25	
2	3	2	1	1	25	
2	1	0	4	1	26	
2	2	2	1	1	26	
1	0	1	3	1	27	
3	2	2	2	1	27	
0	0	0	0	0	
